NAME : rnd17_20.tsp
TYPE : TSP
DIMENSION : 20
EDGE_WEIGHT_TYPE : EUC_2D
NODE_COORD_SECTION
1 4 228
2 392 908
3 280 999
4 36 611
5 183 94
6 148 627
7 544 633
8 259 874
9 494 929
10 815 6
11 722 599
12 635 608
13 489 560
14 828 530
15 878 682
16 452 930
17 812 416
18 978 411
19 147 117
20 984 197
